examples/taylor_sine/txt/taylor_sin_plus.txt
Bounds on variables: 
x (Real) in [-1 / 2, 1 / 2]

exact NVC: 

		NOT
			AND
				IMPL
					0 <= (((sin x) + (-1 * (x + (((x * x) * x) / 6)))) + 325963 / 10000000000000)
					(((sin x) + (-1 * (x + (((x * x) * x) / 6)))) + 325963 / 10000000000000) <= (25889 * (1 / 100000000))
				IMPL
					NOT
						0 <= (((sin x) + (-1 * (x + (((x * x) * x) / 6)))) - 325963 / 10000000000000)
					((-1 * ((sin x) + (-1 * (x + (((x * x) * x) / 6))))) + 325963 / 10000000000000) <= (25889 * (1 / 100000000))